40
    60    53    96    70    51    86    60    23    61    94    83    18    87    85    61    75    54    19    72    18    14     8    69    74    49    18    85    74    66    70    31    50     5    34    95    39    29    38    45    81
     1     6     2    10     6     8     6    10     3     9     9     7     6     2     7     6    10     4     7     7     5     2     2     7     2     4     7     7     8     8     1     7    10     5     6     8     4     4     8     3
   204   197   546  1039   103   484    11   443   266     0   147     0   549     0  1044  1024   997   426   195   581   399   100   625     0   784   661     0   445   700   729   761   542  1027   149   382   632   893   941   862     0
